CMD:
./solvers/bin/cadical --plain --no-reduce -t 1600 ./data/cnfs//6s284rb1/6s284rb1.62.cnf

c --- [ banner ] -------------------------------------------------------------
c 
c CaDiCaL SAT Solver
c Copyright (c) 2016-2024
c A. Biere, M. Fleury, N. Froleyks, K. Fazekas, F. Pollitt, T. Faller
c JKU Linz, University of Freiburg, TU Wien
c 
c Version 2.1.3 5296d3d2a9bf48c154ab2acb5e44625776d821bf
c g++ (Gentoo 12.3.1_p20230526 p2) 12.3.1 20230526 -Wall -Wextra -O3 -DNDEBUG
c Sat Aug 9 07:26:21 PDT 2025 Linux cedar2.int.cedar.computecanada.ca 5.14.0-362.24.2.el9_3.x86_64 x86_64
c 
c --- [ limit ] --------------------------------------------------------------
c 
c setting time limit to 1600 seconds real time (due to '-t 1600')
c 
c --- [ parsing input ] ------------------------------------------------------
c 
c reading DIMACS file from './data/cnfs//6s284rb1/6s284rb1.62.cnf'
c opening file to read './data/cnfs//6s284rb1/6s284rb1.62.cnf'
c found 'p cnf 1246914 3699570' header
c parsed 3699570 clauses in 0.63 seconds process time
c 
c --- [ options ] ------------------------------------------------------------
c 
c   --compact=false                (different from default 'true')
c   --decompose=false              (different from default 'true')
c   --deduplicate=false            (different from default 'true')
c   --elim=false                   (different from default 'true')
c   --probe=false                  (different from default 'true')
c   --reduce=false                 (different from default 'true')
c   --subsume=false                (different from default 'true')
c   --ternary=false                (different from default 'true')
c   --transred=false               (different from default 'true')
c   --vivify=false                 (different from default 'true')
c 
c --- [ solving ] ------------------------------------------------------------
c 
c time measured in process time since initialization
c 
c  seconds   reductions  redundant   irredundant
c          MB    restarts       trail         variables
c           level   conflicts       glue            remaining
c 
c *  0.63 549  0 0   0    0    0  0% 0 3433750 1106733 89%
c {  0.68 554  0 0   0    0    0  0% 0 3433750 1106733 89%
c i  0.87 554 532 0  19  212  192 13% 2 3433750 1106732 89%
c i  0.92 554 552 0  28  254  223 14% 2 3433750 1106731 89%
c i  1.02 555 538 0  47  323  289 14% 2 3433750 1106627 89%
c i  1.03 555 542 0  47  324  289 14% 2 3433750 1106523 89%
c i  1.03 555 545 0  47  325  289 14% 2 3433750 1106419 89%
c i  1.03 555 548 0  47  326  289 14% 2 3433750 1106315 89%
c i  1.03 555 551 0  47  327  289 14% 2 3433750 1106211 89%
c i  1.03 555 554 0  47  328  289 14% 2 3433750 1106107 89%
c i  1.03 555 557 0  47  329  289 14% 2 3433750 1106003 89%
c i  1.04 555 560 0  47  330  289 14% 2 3433750 1105899 89%
c i  1.04 555 563 0  47  331  289 14% 2 3433750 1105795 89%
c i  1.04 555 566 0  47  332  289 14% 2 3433750 1105691 89%
c i  1.04 555 569 0  47  333  289 14% 2 3433750 1105587 89%
c i  1.04 555 572 0  47  334  289 14% 2 3433750 1105483 89%
c i  1.04 555 575 0  47  335  289 14% 2 3433750 1105379 89%
c i  1.04 555 577 0  47  336  289 14% 2 3433750 1105275 89%
c i  1.04 555 580 0  47  337  289 14% 2 3433750 1105171 89%
c i  1.04 555 583 0  47  338  289 14% 2 3433750 1105067 89%
c 
c  seconds    reductions  redundant   irredundant
c          MB     restarts       trail         variables
c            level   conflicts       glue            remaining
c 
c i  1.05 555 586 0  47  339  289 14% 2 3433750 1104963 89%
c i  1.05 555 589 0  47  340  289 14% 2 3433750 1104859 89%
c i  1.05 555 592 0  47  341  289 14% 2 3433750 1104755 89%
c i  1.05 555 594 0  47  342  289 14% 2 3433750 1104651 89%
c i  1.05 555 597 0  47  343  289 14% 2 3433750 1104547 89%
c i  1.05 555 600 0  47  344  289 14% 2 3433750 1104443 89%
c i  1.05 555 603 0  47  345  289 14% 2 3433750 1104339 89%
c i  1.05 555 605 0  47  346  289 14% 2 3433750 1104235 89%
c i  1.07 555 629 0  47  376  317 15% 2 3433750 1104234 89%
c i  1.07 555 627 0  47  379  319 15% 2 3433750 1104233 89%
c i  1.08 555 569 0  47  454  393 15% 2 3433750 1104232 89%
c i  1.08 555 564 0  47  462  400 15% 2 3433750 1104231 89%
c i  1.08 555 558 0  47  472  408 15% 2 3433750 1104173 89%
c i  1.10 556 530 0  50  529  460 15% 2 3433750 1104170 89%
c i  1.16 556 376 0 112  767  677 14% 2 3433750 1104163 89%
c i  1.16 556 375 0 112  768  677 14% 2 3433750 1104142 89%
c i  1.16 556 375 0 112  769  677 14% 2 3433750 1104084 89%
c i  1.16 556 370 0 115  780  687 14% 2 3433750 1104083 89%
c i  1.17 556 347 0 130  837  739 14% 2 3433750 1104082 89%
c i  1.17 556 339 0 136  855  756 14% 2 3433750 1104078 89%
c 
c  seconds    reductions  redundant   irredundant
c          MB     restarts       trail         variables
c            level   conflicts       glue            remaining
c 
c i  1.19 556 320 0 151  907  805 14% 2 3433750 1104074 89%
c }  1.22 556 292 0 178 1000  896 14% 2 3433750 1104074 89%
c [  1.22 556  0 0 178 1000  896  0% 0 3433750 1104074 89%
c O  1.22 556 18 0 178 1002  898 12% 2 3433750 1104074 89%
... skipped 68 lines ...
c          MB      restarts       trail         variables
c            level    conflicts       glue            remaining
c 
c i  4.62 566 1381 0 525 8864 7951 27% 4 3433750 1103488 88%
c i  4.62 566 1378 0 525 8872 7956 27% 4 3433750 1103484 88%
c i  4.64 566 1263 0 525 9245 8290 25% 4 3433750 1103471 88%
c i  4.64 566 1254 0 525 9278 8317 25% 4 3433750 1103335 88%
c i  4.64 566 1249 0 526 9293 8329 25% 4 3433750 1103279 88%
c I  4.66 566 1074 0 526 10007 8964 23% 4 3433750 1103279 88%
c i  4.67 566 1060 0 526 10076 9021 23% 4 3433750 1102760 88%
c i  5.08 566 953 0 527 11015 9861 23% 4 3433750 1101693 88%
c i  5.10 566 893 0 528 11432 10246 23% 4 3433750 1101417 88%
c i  5.15 566 722 0 528 12939 11624 21% 4 3433750 1101374 88%
c i  5.15 566 710 0 528 13070 11739 20% 4 3433750 1101369 88%
c i  5.16 566 709 0 528 13088 11755 20% 4 3433750 1101363 88%
c i  5.16 566 708 0 528 13091 11757 20% 4 3433750 1101242 88%
c i  5.16 566 708 0 528 13092 11757 20% 4 3433750 1101232 88%
c i  5.17 566 672 0 529 13519 12149 20% 5 3433750 1101063 88%
c i  5.18 567 664 0 529 13624 12243 20% 5 3433750 1100985 88%
c i  5.18 567 663 0 529 13637 12253 20% 5 3433750 1100954 88%
c i  5.18 567 659 0 529 13686 12291 20% 5 3433750 1100856 88%
c i  5.18 567 654 0 529 13756 12347 20% 5 3433750 1100667 88%
c i  5.21 567 614 0 529 14323 12796 19% 5 3433750 1100656 88%
c 
c  seconds    reductions    redundant   irredundant
c          MB     restarts         trail         variables
c            level    conflicts        glue            remaining
c 
c ]  5.23 567 571 0 529 15005 13340 19% 5 3433750 1100656 88%
c {  5.23 567 119 0 529 15005 13340 14% 3 3433750 1100656 88%
c B  5.28 567 119 0 531 15009 13344 14% 3 3433750 1100655 88%
c i  5.40 567 117 0 569 15218 13542 14% 3 3433750 1100650 88%
c i  5.40 567 117 0 569 15219 13542 14% 3 3433750 1100649 88%
c i  5.62 567 114 0 603 15515 13822 14% 3 3433750 1100648 88%
c i  5.79 567 113 0 643 15725 14006 15% 3 3433750 1100645 88%
c i  5.80 567 111 0 647 15856 14119 14% 3 3433750 1100514 88%
c i  5.80 567 111 0 647 15857 14119 14% 3 3433750 1100444 88%
c i  5.80 567 110 0 653 15880 14139 14% 3 3433750 1100421 88%
c i  5.80 567 108 0 681 16025 14277 14% 3 3433750 1099868 88%
c i  5.80 567 108 0 682 16026 14277 14% 3 3433750 1099834 88%
c i  5.83 567 95 0 884 16875 15022 14% 3 3433750 1099792 88%
c i  5.84 567 93 0 919 17022 15140 14% 3 3433750 1099781 88%
c i  5.84 567 92 0 935 17089 15189 14% 3 3433750 1099765 88%
c i  5.84 567 92 0 937 17095 15193 14% 3 3433750 1099727 88%
c i  5.84 567 92 0 939 17113 15205 14% 3 3433750 1099720 88%
c i  5.84 567 92 0 939 17133 15214 14% 3 3433750 1099008 88%
c }  5.84 567 92 0 939 17135 15214 14% 3 3433750 1098982 88%
c 0  5.84 567 92 0 939 17135 15214 14% 3 3433750 1098982 88%
c 
c --- [ result ] -------------------------------------------------------------
c 
s UNSATISFIABLE
c 
c --- [ run-time profiling ] -------------------------------------------------
c 
c process time taken by individual solving procedures
c (percentage relative to process time for solving)
c 
c         5.22  100.00% search
c         3.09   59.17% unstable
c         2.07   39.75% stable
c         0.63   12.03% parse
c         0.06    1.08% lucky
c         0.00    0.00% simplify
c   =================================
c         5.22   89.26% solve
c 
c last line shows process time for solving
c (percentage relative to total process time)
c 
c --- [ statistics ] ---------------------------------------------------------
c 
c chronological:              8147        47.55 %  of conflicts
c conflicts:                 17135      3285.10    per second
c decisions:                133864     25664.26    per second
c fixed:                    147932        11.86 %  of all variables
c learned:                   16338        95.35 %  per conflict
c learned_lits:             205802       100.00 %  learned literals
c minimized:                     0         0.00 %  learned literals
c shrunken:                  32696        15.89 %  learned literals
c minishrunken:              22739        11.05 %  learned literals
c otfs:                        226         1.32 %  of conflict
c propagations:           43174541         8.28 M  per second
c rephased:                      5      3427.00    interval
c restarts:                    939        18.25    interval
c stabilizing:                   2        58.38 %  of conflicts
c subsumed:                    994         0.03 %  of all clauses
c strengthened:                224         0.01 %  of all clauses
c 
c seconds are measured in process time for solving
c 
c --- [ resources ] ----------------------------------------------------------
c 
c total process time since initialization:         5.84    seconds
c total real time since initialization:            5.88    seconds
c maximum resident set size of process:          565.00    MB
c 
c --- [ shutting down ] ------------------------------------------------------
c 
c exit 20
